Route #1: 1 12 6 2 7 19 13 3 8 20 24 14 4 9 10 15 25 36 42 30 21 16 11 5 17 26 31 37 51 56 70 55 63 69 76 81 82 83 90 100 95 94 93 99 89 75 68 54 62 50 41 29 49 53 48 35 40 28 39 47 52 60 61 67 74 80 88 98 87 73 86 79 72 59 46 58 65 71 66 78 92 97 85 91 96 84 77 64 57 44 43 32 33 34 45 38 27 23 22 18
Cost 46868
